39
12
0 12 13 15 19 24 28 30 32 34 38
1 14 15 16 18 19 20 26 29 30 31 32 36
2 14 15 20 22 24 27 29 30 31 32 37
3 12 15 17 22 23 36
4 13 14 15 16 17 18 19 24 25 29 32 34 35
5 12 17 20 21 22 25 26 27 28 30 32 36
6 12 14 16 18 19 20 22 23 26 27 28 29 30 33 34 37
7 15 17 20 22 23 27 28 30 33 36 37
8 14 15 20 22 23 24 30 31 33 34 37 38
9 12 13 14 20 29 31 32
10 12 14 21
11 13
